(set-info :Origin "This instance was generated by: BanditFuzz-- an RL fuzzer for SMT solvers" )
(set-info :Author "Joe Scott, Fed Mora, Vijay Ganesh" )
(set-info :Contact "Joe Scott, joseph.scott@uwaterloo.ca")
(set-logic QF_BV)
(declare-const bool_0 Bool)
(declare-const bool_1 Bool)
(declare-const bool_2 Bool)
(declare-const bool_3 Bool)
(declare-const bool_4 Bool)
(declare-const bv_0 (_ BitVec 32))
(declare-const bv_1 (_ BitVec 32))
(declare-const bv_2 (_ BitVec 32))
(declare-const bv_3 (_ BitVec 32))
(declare-const bv_4 (_ BitVec 32))
(assert (bvslt (bvxor (bvor #x4dd480ae  bv_0) (bvlshr #x7586d493  bv_4)) (bvsub (bvxnor bv_1 #x05c8bcb9 ) (bvnor #xd5f31b36  bv_0))))
(assert (and (bvsle (bvmul bv_2 bv_4) (bvsdiv bv_3 bv_3)) (bvslt (bvsdiv bv_2 #xb8d37e98 ) (bvmul bv_1 #x648aa875 ))))
(assert (bvuge (bvxor (bvor #xb985409a  bv_2) (bvxor #x47cdb78a  bv_4)) (bvnor (bvsrem #xc8b7018d  #x8cb3377f ) (bvudiv bv_4 bv_2))))
(assert (bvsge (bvxnor (bvudiv bv_3 #xbb3ae5e4 ) (bvsmod #x9a977d0e  bv_1)) (bvxor (bvmul bv_0 #xb73dde75 ) (bvudiv bv_4 bv_3))))
(assert (xor (bvsge (bvsrem bv_0 #xc8048bff ) (bvnand bv_4 bv_3)) (bvsgt (bvsdiv bv_1 bv_2) (bvxor bv_1 #xb9b79329 ))))
(check-sat)
(exit)
